1258
40 17 48 16 7 53 42 54 82 39 41 91 79 87 10 13 71 43 62 18 11 55 21 32 4 72 1 57 38 63 36 46 52 84 2 85 76 35 97 51 86 67 70 78 30 12 90 31 47 93 56 64 27 66 83 50 23 75 14 15 80 96 3 5 74 81 6 95 65 98 25 59 94 29 99 60 45 73 26 92 49 88 89 20 44 61 22 33 34 68 37 69 28 19 9 58 8 77 24 
